(set-option :produce-models true)
(set-logic QF_LRA)
(set-info :notes | Strip-packing problem.|)
(declare-fun x0 () Real)
(declare-fun y0 () Real)
(declare-fun x1 () Real)
(declare-fun y1 () Real)
(declare-fun x2 () Real)
(declare-fun y2 () Real)
(declare-fun x3 () Real)
(declare-fun y3 () Real)
(declare-fun x4 () Real)
(declare-fun y4 () Real)
(declare-fun x5 () Real)
(declare-fun y5 () Real)
(declare-fun x6 () Real)
(declare-fun y6 () Real)
(declare-fun x7 () Real)
(declare-fun y7 () Real)
(declare-fun x8 () Real)
(declare-fun y8 () Real)
(declare-fun x9 () Real)
(declare-fun y9 () Real)
(declare-fun x10 () Real)
(declare-fun y10 () Real)
(declare-fun x11 () Real)
(declare-fun y11 () Real)
(declare-fun x12 () Real)
(declare-fun y12 () Real)
(declare-fun x13 () Real)
(declare-fun y13 () Real)
(declare-fun x14 () Real)
(declare-fun y14 () Real)
(declare-fun z () Real)
(declare-fun c () Real)
(assert (and (= c z) (and (>= x0 0) 
(and (>= y0 0) 
(and (>= x1 0) 
(and (>= y1 0) 
(and (>= x2 0) 
(and (>= y2 0) 
(and (>= x3 0) 
(and (>= y3 0) 
(and (>= x4 0) 
(and (>= y4 0) 
(and (>= x5 0) 
(and (>= y5 0) 
(and (>= x6 0) 
(and (>= y6 0) 
(and (>= x7 0) 
(and (>= y7 0) 
(and (>= x8 0) 
(and (>= y8 0) 
(and (>= x9 0) 
(and (>= y9 0) 
(and (>= x10 0) 
(and (>= y10 0) 
(and (>= x11 0) 
(and (>= y11 0) 
(and (>= x12 0) 
(and (>= y12 0) 
(and (>= x13 0) 
(and (>= y13 0) 
(and (>= x14 0) 
(and (>= y14 0) 
(and (>= z 0) 
(and (>= c 0) 
(and (<= (+ x0 0.0147173357) z) 
(and (<= 0.8283085237 y0) 
(and (<= y0 1.9364916731) 
(and (<= x0 (- 3.4362159845 0.0147173357)) 
(and (>= x0 0) 
(and (<= (+ x1 0.0720084341) z) 
(and (<= 0.82697311 y1) 
(and (<= y1 1.9364916731) 
(and (<= x1 (- 3.4362159845 0.0720084341)) 
(and (>= x1 0) 
(and (<= (+ x2 0.8396692373) z) 
(and (<= 0.7873846313 y2) 
(and (<= y2 1.9364916731) 
(and (<= x2 (- 3.4362159845 0.8396692373)) 
(and (>= x2 0) 
(and (<= (+ x3 0.0293710767) z) 
(and (<= 0.7618912243 y3) 
(and (<= y3 1.9364916731) 
(and (<= x3 (- 3.4362159845 0.0293710767)) 
(and (>= x3 0) 
(and (<= (+ x4 0.0643731211) z) 
(and (<= 0.693569646 y4) 
(and (<= y4 1.9364916731) 
(and (<= x4 (- 3.4362159845 0.0643731211)) 
(and (>= x4 0) 
(and (<= (+ x5 0.0540008991) z) 
(and (<= 0.6926044683 y5) 
(and (<= y5 1.9364916731) 
(and (<= x5 (- 3.4362159845 0.0540008991)) 
(and (>= x5 0) 
(and (<= (+ x6 0.6573578241) z) 
(and (<= 0.5369350992 y6) 
(and (<= y6 1.9364916731) 
(and (<= x6 (- 3.4362159845 0.6573578241)) 
(and (>= x6 0) 
(and (<= (+ x7 0.877242334) z) 
(and (<= 0.5274480397 y7) 
(and (<= y7 1.9364916731) 
(and (<= x7 (- 3.4362159845 0.877242334)) 
(and (>= x7 0) 
(and (<= (+ x8 0.644226289) z) 
(and (<= 0.4919487298 y8) 
(and (<= y8 1.9364916731) 
(and (<= x8 (- 3.4362159845 0.644226289)) 
(and (>= x8 0) 
(and (<= (+ x9 0.9212199202) z) 
(and (<= 0.4541987371 y9) 
(and (<= y9 1.9364916731) 
(and (<= x9 (- 3.4362159845 0.9212199202)) 
(and (>= x9 0) 
(and (<= (+ x10 0.6572532732) z) 
(and (<= 0.409897412 y10) 
(and (<= y10 1.9364916731) 
(and (<= x10 (- 3.4362159845 0.6572532732)) 
(and (>= x10 0) 
(and (<= (+ x11 0.437220767) z) 
(and (<= 0.3830034107 y11) 
(and (<= y11 1.9364916731) 
(and (<= x11 (- 3.4362159845 0.437220767)) 
(and (>= x11 0) 
(and (<= (+ x12 0.4812731816) z) 
(and (<= 0.2247013608 y12) 
(and (<= y12 1.9364916731) 
(and (<= x12 (- 3.4362159845 0.4812731816)) 
(and (>= x12 0) 
(and (<= (+ x13 0.535247942) z) 
(and (<= 0.1022384042 y13) 
(and (<= y13 1.9364916731) 
(and (<= x13 (- 3.4362159845 0.535247942)) 
(and (>= x13 0) 
(and (<= (+ x14 0.838474214) z) 
(and (<= 0.0388470794 y14) 
(and (<= y14 1.9364916731) 
(and (<= x14 (- 3.4362159845 0.838474214)) 
(and (>= x14 0) 
(and (<= c 3.4362159845) 
(and (or (<= (+ x0 0.0147173357) x1) (or (<= (+ x1 0.0720084341) x0) (or (>= (- y0 0.8283085237) y1) (or (>= (- y1 0.82697311) y0))))) 
(and (or (<= (+ x0 0.0147173357) x2) (or (<= (+ x2 0.8396692373) x0) (or (>= (- y0 0.8283085237) y2) (or (>= (- y2 0.7873846313) y0))))) 
(and (or (<= (+ x0 0.0147173357) x3) (or (<= (+ x3 0.0293710767) x0) (or (>= (- y0 0.8283085237) y3) (or (>= (- y3 0.7618912243) y0))))) 
(and (or (<= (+ x0 0.0147173357) x4) (or (<= (+ x4 0.0643731211) x0) (or (>= (- y0 0.8283085237) y4) (or (>= (- y4 0.693569646) y0))))) 
(and (or (<= (+ x0 0.0147173357) x5) (or (<= (+ x5 0.0540008991) x0) (or (>= (- y0 0.8283085237) y5) (or (>= (- y5 0.6926044683) y0))))) 
(and (or (<= (+ x0 0.0147173357) x6) (or (<= (+ x6 0.6573578241) x0) (or (>= (- y0 0.8283085237) y6) (or (>= (- y6 0.5369350992) y0))))) 
(and (or (<= (+ x0 0.0147173357) x7) (or (<= (+ x7 0.877242334) x0) (or (>= (- y0 0.8283085237) y7) (or (>= (- y7 0.5274480397) y0))))) 
(and (or (<= (+ x0 0.0147173357) x8) (or (<= (+ x8 0.644226289) x0) (or (>= (- y0 0.8283085237) y8) (or (>= (- y8 0.4919487298) y0))))) 
(and (or (<= (+ x0 0.0147173357) x9) (or (<= (+ x9 0.9212199202) x0) (or (>= (- y0 0.8283085237) y9) (or (>= (- y9 0.4541987371) y0))))) 
(and (or (<= (+ x0 0.0147173357) x10) (or (<= (+ x10 0.6572532732) x0) (or (>= (- y0 0.8283085237) y10) (or (>= (- y10 0.409897412) y0))))) 
(and (or (<= (+ x0 0.0147173357) x11) (or (<= (+ x11 0.437220767) x0) (or (>= (- y0 0.8283085237) y11) (or (>= (- y11 0.3830034107) y0))))) 
(and (or (<= (+ x0 0.0147173357) x12) (or (<= (+ x12 0.4812731816) x0) (or (>= (- y0 0.8283085237) y12) (or (>= (- y12 0.2247013608) y0))))) 
(and (or (<= (+ x0 0.0147173357) x13) (or (<= (+ x13 0.535247942) x0) (or (>= (- y0 0.8283085237) y13) (or (>= (- y13 0.1022384042) y0))))) 
(and (or (<= (+ x0 0.0147173357) x14) (or (<= (+ x14 0.838474214) x0) (or (>= (- y0 0.8283085237) y14) (or (>= (- y14 0.0388470794) y0))))) 
(and (or (<= (+ x1 0.0720084341) x2) (or (<= (+ x2 0.8396692373) x1) (or (>= (- y1 0.82697311) y2) (or (>= (- y2 0.7873846313) y1))))) 
(and (or (<= (+ x1 0.0720084341) x3) (or (<= (+ x3 0.0293710767) x1) (or (>= (- y1 0.82697311) y3) (or (>= (- y3 0.7618912243) y1))))) 
(and (or (<= (+ x1 0.0720084341) x4) (or (<= (+ x4 0.0643731211) x1) (or (>= (- y1 0.82697311) y4) (or (>= (- y4 0.693569646) y1))))) 
(and (or (<= (+ x1 0.0720084341) x5) (or (<= (+ x5 0.0540008991) x1) (or (>= (- y1 0.82697311) y5) (or (>= (- y5 0.6926044683) y1))))) 
(and (or (<= (+ x1 0.0720084341) x6) (or (<= (+ x6 0.6573578241) x1) (or (>= (- y1 0.82697311) y6) (or (>= (- y6 0.5369350992) y1))))) 
(and (or (<= (+ x1 0.0720084341) x7) (or (<= (+ x7 0.877242334) x1) (or (>= (- y1 0.82697311) y7) (or (>= (- y7 0.5274480397) y1))))) 
(and (or (<= (+ x1 0.0720084341) x8) (or (<= (+ x8 0.644226289) x1) (or (>= (- y1 0.82697311) y8) (or (>= (- y8 0.4919487298) y1))))) 
(and (or (<= (+ x1 0.0720084341) x9) (or (<= (+ x9 0.9212199202) x1) (or (>= (- y1 0.82697311) y9) (or (>= (- y9 0.4541987371) y1))))) 
(and (or (<= (+ x1 0.0720084341) x10) (or (<= (+ x10 0.6572532732) x1) (or (>= (- y1 0.82697311) y10) (or (>= (- y10 0.409897412) y1))))) 
(and (or (<= (+ x1 0.0720084341) x11) (or (<= (+ x11 0.437220767) x1) (or (>= (- y1 0.82697311) y11) (or (>= (- y11 0.3830034107) y1))))) 
(and (or (<= (+ x1 0.0720084341) x12) (or (<= (+ x12 0.4812731816) x1) (or (>= (- y1 0.82697311) y12) (or (>= (- y12 0.2247013608) y1))))) 
(and (or (<= (+ x1 0.0720084341) x13) (or (<= (+ x13 0.535247942) x1) (or (>= (- y1 0.82697311) y13) (or (>= (- y13 0.1022384042) y1))))) 
(and (or (<= (+ x1 0.0720084341) x14) (or (<= (+ x14 0.838474214) x1) (or (>= (- y1 0.82697311) y14) (or (>= (- y14 0.0388470794) y1))))) 
(and (or (<= (+ x2 0.8396692373) x3) (or (<= (+ x3 0.0293710767) x2) (or (>= (- y2 0.7873846313) y3) (or (>= (- y3 0.7618912243) y2))))) 
(and (or (<= (+ x2 0.8396692373) x4) (or (<= (+ x4 0.0643731211) x2) (or (>= (- y2 0.7873846313) y4) (or (>= (- y4 0.693569646) y2))))) 
(and (or (<= (+ x2 0.8396692373) x5) (or (<= (+ x5 0.0540008991) x2) (or (>= (- y2 0.7873846313) y5) (or (>= (- y5 0.6926044683) y2))))) 
(and (or (<= (+ x2 0.8396692373) x6) (or (<= (+ x6 0.6573578241) x2) (or (>= (- y2 0.7873846313) y6) (or (>= (- y6 0.5369350992) y2))))) 
(and (or (<= (+ x2 0.8396692373) x7) (or (<= (+ x7 0.877242334) x2) (or (>= (- y2 0.7873846313) y7) (or (>= (- y7 0.5274480397) y2))))) 
(and (or (<= (+ x2 0.8396692373) x8) (or (<= (+ x8 0.644226289) x2) (or (>= (- y2 0.7873846313) y8) (or (>= (- y8 0.4919487298) y2))))) 
(and (or (<= (+ x2 0.8396692373) x9) (or (<= (+ x9 0.9212199202) x2) (or (>= (- y2 0.7873846313) y9) (or (>= (- y9 0.4541987371) y2))))) 
(and (or (<= (+ x2 0.8396692373) x10) (or (<= (+ x10 0.6572532732) x2) (or (>= (- y2 0.7873846313) y10) (or (>= (- y10 0.409897412) y2))))) 
(and (or (<= (+ x2 0.8396692373) x11) (or (<= (+ x11 0.437220767) x2) (or (>= (- y2 0.7873846313) y11) (or (>= (- y11 0.3830034107) y2))))) 
(and (or (<= (+ x2 0.8396692373) x12) (or (<= (+ x12 0.4812731816) x2) (or (>= (- y2 0.7873846313) y12) (or (>= (- y12 0.2247013608) y2))))) 
(and (or (<= (+ x2 0.8396692373) x13) (or (<= (+ x13 0.535247942) x2) (or (>= (- y2 0.7873846313) y13) (or (>= (- y13 0.1022384042) y2))))) 
(and (or (<= (+ x2 0.8396692373) x14) (or (<= (+ x14 0.838474214) x2) (or (>= (- y2 0.7873846313) y14) (or (>= (- y14 0.0388470794) y2))))) 
(and (or (<= (+ x3 0.0293710767) x4) (or (<= (+ x4 0.0643731211) x3) (or (>= (- y3 0.7618912243) y4) (or (>= (- y4 0.693569646) y3))))) 
(and (or (<= (+ x3 0.0293710767) x5) (or (<= (+ x5 0.0540008991) x3) (or (>= (- y3 0.7618912243) y5) (or (>= (- y5 0.6926044683) y3))))) 
(and (or (<= (+ x3 0.0293710767) x6) (or (<= (+ x6 0.6573578241) x3) (or (>= (- y3 0.7618912243) y6) (or (>= (- y6 0.5369350992) y3))))) 
(and (or (<= (+ x3 0.0293710767) x7) (or (<= (+ x7 0.877242334) x3) (or (>= (- y3 0.7618912243) y7) (or (>= (- y7 0.5274480397) y3))))) 
(and (or (<= (+ x3 0.0293710767) x8) (or (<= (+ x8 0.644226289) x3) (or (>= (- y3 0.7618912243) y8) (or (>= (- y8 0.4919487298) y3))))) 
(and (or (<= (+ x3 0.0293710767) x9) (or (<= (+ x9 0.9212199202) x3) (or (>= (- y3 0.7618912243) y9) (or (>= (- y9 0.4541987371) y3))))) 
(and (or (<= (+ x3 0.0293710767) x10) (or (<= (+ x10 0.6572532732) x3) (or (>= (- y3 0.7618912243) y10) (or (>= (- y10 0.409897412) y3))))) 
(and (or (<= (+ x3 0.0293710767) x11) (or (<= (+ x11 0.437220767) x3) (or (>= (- y3 0.7618912243) y11) (or (>= (- y11 0.3830034107) y3))))) 
(and (or (<= (+ x3 0.0293710767) x12) (or (<= (+ x12 0.4812731816) x3) (or (>= (- y3 0.7618912243) y12) (or (>= (- y12 0.2247013608) y3))))) 
(and (or (<= (+ x3 0.0293710767) x13) (or (<= (+ x13 0.535247942) x3) (or (>= (- y3 0.7618912243) y13) (or (>= (- y13 0.1022384042) y3))))) 
(and (or (<= (+ x3 0.0293710767) x14) (or (<= (+ x14 0.838474214) x3) (or (>= (- y3 0.7618912243) y14) (or (>= (- y14 0.0388470794) y3))))) 
(and (or (<= (+ x4 0.0643731211) x5) (or (<= (+ x5 0.0540008991) x4) (or (>= (- y4 0.693569646) y5) (or (>= (- y5 0.6926044683) y4))))) 
(and (or (<= (+ x4 0.0643731211) x6) (or (<= (+ x6 0.6573578241) x4) (or (>= (- y4 0.693569646) y6) (or (>= (- y6 0.5369350992) y4))))) 
(and (or (<= (+ x4 0.0643731211) x7) (or (<= (+ x7 0.877242334) x4) (or (>= (- y4 0.693569646) y7) (or (>= (- y7 0.5274480397) y4))))) 
(and (or (<= (+ x4 0.0643731211) x8) (or (<= (+ x8 0.644226289) x4) (or (>= (- y4 0.693569646) y8) (or (>= (- y8 0.4919487298) y4))))) 
(and (or (<= (+ x4 0.0643731211) x9) (or (<= (+ x9 0.9212199202) x4) (or (>= (- y4 0.693569646) y9) (or (>= (- y9 0.4541987371) y4))))) 
(and (or (<= (+ x4 0.0643731211) x10) (or (<= (+ x10 0.6572532732) x4) (or (>= (- y4 0.693569646) y10) (or (>= (- y10 0.409897412) y4))))) 
(and (or (<= (+ x4 0.0643731211) x11) (or (<= (+ x11 0.437220767) x4) (or (>= (- y4 0.693569646) y11) (or (>= (- y11 0.3830034107) y4))))) 
(and (or (<= (+ x4 0.0643731211) x12) (or (<= (+ x12 0.4812731816) x4) (or (>= (- y4 0.693569646) y12) (or (>= (- y12 0.2247013608) y4))))) 
(and (or (<= (+ x4 0.0643731211) x13) (or (<= (+ x13 0.535247942) x4) (or (>= (- y4 0.693569646) y13) (or (>= (- y13 0.1022384042) y4))))) 
(and (or (<= (+ x4 0.0643731211) x14) (or (<= (+ x14 0.838474214) x4) (or (>= (- y4 0.693569646) y14) (or (>= (- y14 0.0388470794) y4))))) 
(and (or (<= (+ x5 0.0540008991) x6) (or (<= (+ x6 0.6573578241) x5) (or (>= (- y5 0.6926044683) y6) (or (>= (- y6 0.5369350992) y5))))) 
(and (or (<= (+ x5 0.0540008991) x7) (or (<= (+ x7 0.877242334) x5) (or (>= (- y5 0.6926044683) y7) (or (>= (- y7 0.5274480397) y5))))) 
(and (or (<= (+ x5 0.0540008991) x8) (or (<= (+ x8 0.644226289) x5) (or (>= (- y5 0.6926044683) y8) (or (>= (- y8 0.4919487298) y5))))) 
(and (or (<= (+ x5 0.0540008991) x9) (or (<= (+ x9 0.9212199202) x5) (or (>= (- y5 0.6926044683) y9) (or (>= (- y9 0.4541987371) y5))))) 
(and (or (<= (+ x5 0.0540008991) x10) (or (<= (+ x10 0.6572532732) x5) (or (>= (- y5 0.6926044683) y10) (or (>= (- y10 0.409897412) y5))))) 
(and (or (<= (+ x5 0.0540008991) x11) (or (<= (+ x11 0.437220767) x5) (or (>= (- y5 0.6926044683) y11) (or (>= (- y11 0.3830034107) y5))))) 
(and (or (<= (+ x5 0.0540008991) x12) (or (<= (+ x12 0.4812731816) x5) (or (>= (- y5 0.6926044683) y12) (or (>= (- y12 0.2247013608) y5))))) 
(and (or (<= (+ x5 0.0540008991) x13) (or (<= (+ x13 0.535247942) x5) (or (>= (- y5 0.6926044683) y13) (or (>= (- y13 0.1022384042) y5))))) 
(and (or (<= (+ x5 0.0540008991) x14) (or (<= (+ x14 0.838474214) x5) (or (>= (- y5 0.6926044683) y14) (or (>= (- y14 0.0388470794) y5))))) 
(and (or (<= (+ x6 0.6573578241) x7) (or (<= (+ x7 0.877242334) x6) (or (>= (- y6 0.5369350992) y7) (or (>= (- y7 0.5274480397) y6))))) 
(and (or (<= (+ x6 0.6573578241) x8) (or (<= (+ x8 0.644226289) x6) (or (>= (- y6 0.5369350992) y8) (or (>= (- y8 0.4919487298) y6))))) 
(and (or (<= (+ x6 0.6573578241) x9) (or (<= (+ x9 0.9212199202) x6) (or (>= (- y6 0.5369350992) y9) (or (>= (- y9 0.4541987371) y6))))) 
(and (or (<= (+ x6 0.6573578241) x10) (or (<= (+ x10 0.6572532732) x6) (or (>= (- y6 0.5369350992) y10) (or (>= (- y10 0.409897412) y6))))) 
(and (or (<= (+ x6 0.6573578241) x11) (or (<= (+ x11 0.437220767) x6) (or (>= (- y6 0.5369350992) y11) (or (>= (- y11 0.3830034107) y6))))) 
(and (or (<= (+ x6 0.6573578241) x12) (or (<= (+ x12 0.4812731816) x6) (or (>= (- y6 0.5369350992) y12) (or (>= (- y12 0.2247013608) y6))))) 
(and (or (<= (+ x6 0.6573578241) x13) (or (<= (+ x13 0.535247942) x6) (or (>= (- y6 0.5369350992) y13) (or (>= (- y13 0.1022384042) y6))))) 
(and (or (<= (+ x6 0.6573578241) x14) (or (<= (+ x14 0.838474214) x6) (or (>= (- y6 0.5369350992) y14) (or (>= (- y14 0.0388470794) y6))))) 
(and (or (<= (+ x7 0.877242334) x8) (or (<= (+ x8 0.644226289) x7) (or (>= (- y7 0.5274480397) y8) (or (>= (- y8 0.4919487298) y7))))) 
(and (or (<= (+ x7 0.877242334) x9) (or (<= (+ x9 0.9212199202) x7) (or (>= (- y7 0.5274480397) y9) (or (>= (- y9 0.4541987371) y7))))) 
(and (or (<= (+ x7 0.877242334) x10) (or (<= (+ x10 0.6572532732) x7) (or (>= (- y7 0.5274480397) y10) (or (>= (- y10 0.409897412) y7))))) 
(and (or (<= (+ x7 0.877242334) x11) (or (<= (+ x11 0.437220767) x7) (or (>= (- y7 0.5274480397) y11) (or (>= (- y11 0.3830034107) y7))))) 
(and (or (<= (+ x7 0.877242334) x12) (or (<= (+ x12 0.4812731816) x7) (or (>= (- y7 0.5274480397) y12) (or (>= (- y12 0.2247013608) y7))))) 
(and (or (<= (+ x7 0.877242334) x13) (or (<= (+ x13 0.535247942) x7) (or (>= (- y7 0.5274480397) y13) (or (>= (- y13 0.1022384042) y7))))) 
(and (or (<= (+ x7 0.877242334) x14) (or (<= (+ x14 0.838474214) x7) (or (>= (- y7 0.5274480397) y14) (or (>= (- y14 0.0388470794) y7))))) 
(and (or (<= (+ x8 0.644226289) x9) (or (<= (+ x9 0.9212199202) x8) (or (>= (- y8 0.4919487298) y9) (or (>= (- y9 0.4541987371) y8))))) 
(and (or (<= (+ x8 0.644226289) x10) (or (<= (+ x10 0.6572532732) x8) (or (>= (- y8 0.4919487298) y10) (or (>= (- y10 0.409897412) y8))))) 
(and (or (<= (+ x8 0.644226289) x11) (or (<= (+ x11 0.437220767) x8) (or (>= (- y8 0.4919487298) y11) (or (>= (- y11 0.3830034107) y8))))) 
(and (or (<= (+ x8 0.644226289) x12) (or (<= (+ x12 0.4812731816) x8) (or (>= (- y8 0.4919487298) y12) (or (>= (- y12 0.2247013608) y8))))) 
(and (or (<= (+ x8 0.644226289) x13) (or (<= (+ x13 0.535247942) x8) (or (>= (- y8 0.4919487298) y13) (or (>= (- y13 0.1022384042) y8))))) 
(and (or (<= (+ x8 0.644226289) x14) (or (<= (+ x14 0.838474214) x8) (or (>= (- y8 0.4919487298) y14) (or (>= (- y14 0.0388470794) y8))))) 
(and (or (<= (+ x9 0.9212199202) x10) (or (<= (+ x10 0.6572532732) x9) (or (>= (- y9 0.4541987371) y10) (or (>= (- y10 0.409897412) y9))))) 
(and (or (<= (+ x9 0.9212199202) x11) (or (<= (+ x11 0.437220767) x9) (or (>= (- y9 0.4541987371) y11) (or (>= (- y11 0.3830034107) y9))))) 
(and (or (<= (+ x9 0.9212199202) x12) (or (<= (+ x12 0.4812731816) x9) (or (>= (- y9 0.4541987371) y12) (or (>= (- y12 0.2247013608) y9))))) 
(and (or (<= (+ x9 0.9212199202) x13) (or (<= (+ x13 0.535247942) x9) (or (>= (- y9 0.4541987371) y13) (or (>= (- y13 0.1022384042) y9))))) 
(and (or (<= (+ x9 0.9212199202) x14) (or (<= (+ x14 0.838474214) x9) (or (>= (- y9 0.4541987371) y14) (or (>= (- y14 0.0388470794) y9))))) 
(and (or (<= (+ x10 0.6572532732) x11) (or (<= (+ x11 0.437220767) x10) (or (>= (- y10 0.409897412) y11) (or (>= (- y11 0.3830034107) y10))))) 
(and (or (<= (+ x10 0.6572532732) x12) (or (<= (+ x12 0.4812731816) x10) (or (>= (- y10 0.409897412) y12) (or (>= (- y12 0.2247013608) y10))))) 
(and (or (<= (+ x10 0.6572532732) x13) (or (<= (+ x13 0.535247942) x10) (or (>= (- y10 0.409897412) y13) (or (>= (- y13 0.1022384042) y10))))) 
(and (or (<= (+ x10 0.6572532732) x14) (or (<= (+ x14 0.838474214) x10) (or (>= (- y10 0.409897412) y14) (or (>= (- y14 0.0388470794) y10))))) 
(and (or (<= (+ x11 0.437220767) x12) (or (<= (+ x12 0.4812731816) x11) (or (>= (- y11 0.3830034107) y12) (or (>= (- y12 0.2247013608) y11))))) 
(and (or (<= (+ x11 0.437220767) x13) (or (<= (+ x13 0.535247942) x11) (or (>= (- y11 0.3830034107) y13) (or (>= (- y13 0.1022384042) y11))))) 
(and (or (<= (+ x11 0.437220767) x14) (or (<= (+ x14 0.838474214) x11) (or (>= (- y11 0.3830034107) y14) (or (>= (- y14 0.0388470794) y11))))) 
(and (or (<= (+ x12 0.4812731816) x13) (or (<= (+ x13 0.535247942) x12) (or (>= (- y12 0.2247013608) y13) (or (>= (- y13 0.1022384042) y12))))) 
(and (or (<= (+ x12 0.4812731816) x14) (or (<= (+ x14 0.838474214) x12) (or (>= (- y12 0.2247013608) y14) (or (>= (- y14 0.0388470794) y12))))) 
(and (or (<= (+ x13 0.535247942) x14) (or (<= (+ x14 0.838474214) x13) (or (>= (- y13 0.1022384042) y14) (or (>= (- y14 0.0388470794) y13))))) )))))))))))))))))))))))))))))))))))))))))))))))))))))))))))))))))))))))))))))))))))))))))))))))))))))))))))))))))))))))))))))))))))))))))))))))))))))))))))))))))))))))))))))))))))))))))))))))))))))))))))))))))))))))
(minimize c)
(check-sat)
(get-objectives)
(exit)
